Version identifier: 22.1.1.0 | 2022-11-28 | 9160aff4d
CPXPARAM_Read_DataCheck                          1
CPXPARAM_MIP_Strategy_NodeSelect                 0
CPXPARAM_MIP_Strategy_HeuristicFreq              1
CPXPARAM_TimeLimit                               633
Tried aggregator 1 time.
MIP Presolve eliminated 191 rows and 1412 columns.
MIP Presolve modified 55341 coefficients.
Reduced MIP has 10301 rows, 14434 columns, and 76626 nonzeros.
Reduced MIP has 14335 binaries, 0 generals, 0 SOSs, and 0 indicators.
Presolve time = 0.06 sec. (82.51 ticks)
Probing time = 0.04 sec. (9.65 ticks)
Tried aggregator 1 time.
Detecting symmetries...
Reduced MIP has 10301 rows, 14434 columns, and 76626 nonzeros.
Reduced MIP has 14335 binaries, 0 generals, 0 SOSs, and 0 indicators.
Presolve time = 0.03 sec. (42.86 ticks)
Probing time = 0.04 sec. (9.52 ticks)
Clique table members: 11836.
MIP emphasis: balance optimality and feasibility.
MIP search method: dynamic search.
Parallel mode: deterministic, using up to 12 threads.
Root relaxation solution time = 0.20 sec. (223.09 ticks)

        Nodes                                         Cuts/
   Node  Left     Objective  IInf  Best Integer    Best Bound    ItCnt     Gap

      0     0      351.1313   153                    351.1313     2283         
      0     0      412.6020   180                   Cuts: 177     2965         
      0     0      416.7143   159                   Cuts: 701     3422         
      0     0      416.8095   135                   Cuts: 410     3557         
      0     0      416.8750   144                    Cuts: 41     3610         
      0     0      416.9375   149                    Cuts: 21     3628         
Detecting symmetries...
      0     0      416.9500   129                    Cuts: 17     3649         
      0     0      417.0000   137                     Cuts: 7     3693         
      0     0      417.0000   158                    Cuts: 16     3806         
      0     0      417.0000   109                     Cuts: 3     3813         
*     0+    0                         5850.0000      417.0000            92.87%
*     0+    0                         3750.0000      417.0000            88.88%
      0     0      417.0000   158     3750.0000      Cuts: 46     4016   88.88%
*     0+    0                         3133.0000      417.0000            86.69%
*     0+    0                          887.0000      417.0000            52.99%
*     0+    0                          711.0000      417.0000            41.35%
*     0+    0                          674.0000      417.0000            38.13%
*     0+    0                          656.0000      417.0000            36.43%
      0     0  -1.00000e+75     0      656.0000      417.0000     4016   36.43%
Detecting symmetries...
      0     2      417.0000   129      656.0000      417.0000     4016   36.43%
Elapsed time = 5.86 sec. (5447.48 ticks, tree = 0.02 MB, solutions = 7)
      2     4      418.3333   102      656.0000      417.0000     4341   36.43%
      5     7      417.6250   143      656.0000      417.6250     5120   36.34%
     14    13      433.6071   147      656.0000      417.6250     7870   36.34%
     41    27      435.0925   151      656.0000      417.6250    11606   36.34%
     67    46      434.3161   168      656.0000      417.6250    14412   36.34%
    120   105      434.3161   168      656.0000      417.6250    22226   36.34%
    150   115      417.6250   146      656.0000      417.6250    24830   36.34%
    212   177      434.8111   173      656.0000      417.6250    29127   36.34%
    291   165      437.0000   148      656.0000      417.6250    29598   36.34%
    473   397      450.2987   131      656.0000      417.6250    53787   36.34%
Elapsed time = 12.29 sec. (8777.94 ticks, tree = 2.02 MB, solutions = 7)
    767   641      454.6414    65      656.0000      417.6250    74017   36.34%
   1049   945      446.0048   103      656.0000      417.6250    86264   36.34%
*  1178+ 1054                          638.0000      417.6250            34.54%
*  1193  1115      integral     0      557.0000      417.6250    93566   25.02%
   1310  1191      420.8564    82      557.0000      417.6250    95743   25.02%
*  2168+ 1443                          502.0000      417.6250            16.81%
   2194  1386      454.8191   104      502.0000      417.6250   102966   16.81%
*  2248  1465      integral     0      450.0000      417.6250   104309    7.19%
   3446   885      436.1418    59      450.0000      417.6250   134281    7.19%

Performing restart 1

Repeating presolve.
Tried aggregator 1 time.
MIP Presolve eliminated 7838 rows and 8003 columns.
MIP Presolve modified 406 coefficients.
Reduced MIP has 2463 rows, 6431 columns, and 25214 nonzeros.
Reduced MIP has 6332 binaries, 0 generals, 0 SOSs, and 0 indicators.
Presolve time = 0.02 sec. (21.58 ticks)
Tried aggregator 1 time.
MIP Presolve modified 1386 coefficients.
Reduced MIP has 2463 rows, 6431 columns, and 25214 nonzeros.
Reduced MIP has 6332 binaries, 0 generals, 0 SOSs, and 0 indicators.
Presolve time = 0.01 sec. (15.88 ticks)
Represolve time = 0.10 sec. (128.36 ticks)
*  3977+    0                          426.0000      417.6250             1.97%
   3977     0      418.0000   164      426.0000     Cuts: 104   162051    1.88%
   3977     0      418.0000   161      426.0000     Cuts: 129   162283    1.88%

Repeating presolve.
Tried aggregator 2 times.
MIP Presolve eliminated 231 rows and 3918 columns.
MIP Presolve added 28 rows and 0 columns.
MIP Presolve modified 6742 coefficients.
Aggregator did 12 substitutions.
Reduced MIP has 2248 rows, 2501 columns, and 16130 nonzeros.
Reduced MIP has 2402 binaries, 0 generals, 0 SOSs, and 0 indicators.
Presolve time = 0.02 sec. (23.23 ticks)
Tried aggregator 1 time.
MIP Presolve eliminated 277 rows and 0 columns.
MIP Presolve modified 3599 coefficients.
Reduced MIP has 1971 rows, 2501 columns, and 15338 nonzeros.
Reduced MIP has 2402 binaries, 0 generals, 0 SOSs, and 0 indicators.
Presolve time = 0.01 sec. (16.88 ticks)
Represolve time = 0.06 sec. (73.82 ticks)
*  3977+    0                          422.0000      418.0000             0.95%
   3977     0      418.0000   154      422.0000      Cuts: 40   164440    0.95%
   3977     0      418.0000   177      422.0000     Cuts: 140   164676    0.95%
*  3977+    0                          420.0000      418.0000             0.48%
   3977     0  -1.00000e+75     0      420.0000      418.0000   164676    0.48%

Repeating presolve.
Tried aggregator 2 times.
MIP Presolve eliminated 345 rows and 1848 columns.
MIP Presolve added 68 rows and 0 columns.
MIP Presolve modified 3020 coefficients.
Aggregator did 53 substitutions.
Reduced MIP has 1641 rows, 600 columns, and 5658 nonzeros.
Reduced MIP has 501 binaries, 0 generals, 0 SOSs, and 0 indicators.
Presolve time = 0.01 sec. (13.08 ticks)
Tried aggregator 1 time.
MIP Presolve eliminated 523 rows and 2 columns.
MIP Presolve modified 1025 coefficients.
Reduced MIP has 1118 rows, 598 columns, and 4230 nonzeros.
Reduced MIP has 499 binaries, 0 generals, 0 SOSs, and 0 indicators.
Presolve time = 0.01 sec. (6.15 ticks)
Represolve time = 0.03 sec. (45.54 ticks)

Repeating presolve.
Tried aggregator 2 times.
MIP Presolve eliminated 134 rows and 235 columns.
MIP Presolve modified 2371 coefficients.
Aggregator did 9 substitutions.
Reduced MIP has 975 rows, 354 columns, and 4305 nonzeros.
Reduced MIP has 256 binaries, 0 generals, 0 SOSs, and 0 indicators.
Presolve time = 0.01 sec. (10.15 ticks)
Tried aggregator 2 times.
MIP Presolve eliminated 45 rows and 1 columns.
MIP Presolve modified 671 coefficients.
Aggregator did 1 substitutions.
Reduced MIP has 929 rows, 352 columns, and 4069 nonzeros.
Reduced MIP has 255 binaries, 0 generals, 0 SOSs, and 0 indicators.
Presolve time = 0.00 sec. (4.16 ticks)
Represolve time = 0.03 sec. (27.95 ticks)
*  3977     0      integral     0      420.0000                 165429    0.00%

Clique cuts applied:  9
Cover cuts applied:  5
Implied bound cuts applied:  10
Mixed integer rounding cuts applied:  36
Zero-half cuts applied:  10
Lift and project cuts applied:  5
Gomory fractional cuts applied:  8

Root node processing (before b&c):
  Real time             =    5.79 sec. (5394.55 ticks)
Parallel b&c, 12 threads:
  Real time             =   21.34 sec. (11429.02 ticks)
  Sync time (average)   =    3.15 sec.
  Wait time (average)   =    0.00 sec.
                          ------------
Total (root+branch&cut) =   27.13 sec. (16823.57 ticks)
